Route #1: 22 13 16 23 11
Route #2: 40 3 50 27 18 28 32
Route #3: 29 7 37 20 1 9 55
Route #4: 38 54 43 45 24 52
Route #5: 36 47 41 21 5
Route #6: 35 14 34 44 19 42 53
Route #7: 4 49 33 48 12 30
Route #8: 6 56 10 17 31 46
Route #9: 2 39 26 51 25 15 8
cost 1781.428955078125